p cnf 36 124
1 2 0
-1 -2 0
13 14 0
-13 -14 0
25 26 0
-25 -26 0
3 4 0
-3 -4 0
15 16 0
-15 -16 0
27 28 0
-27 -28 0
5 6 0
-5 -6 0
17 18 0
-17 -18 0
29 30 0
-29 -30 0
7 8 0
-7 -8 0
19 20 0
-19 -20 0
31 32 0
-31 -32 0
9 10 0
-9 -10 0
21 22 0
-21 -22 0
33 34 0
-33 -34 0
11 12 0
-11 -12 0
23 24 0
-23 -24 0
35 36 0
-35 -36 0
-1 -13 4 0
-1 -14 4 0
-2 -13 4 0
-2 -14 3 0
-13 -1 -25 16 0
-13 -2 -25 16 0
-13 -1 -26 16 0
-13 -2 -26 16 0
-14 -1 -25 16 0
-14 -2 -25 16 0
-14 -1 -26 16 0
-14 -2 -26 15 0
-25 -13 28 0
-25 -14 28 0
-26 -13 28 0
-26 -14 27 0
-3 -15 6 0
-3 -16 6 0
-4 -15 6 0
-4 -16 5 0
-15 -3 -27 18 0
-15 -4 -27 18 0
-15 -3 -28 18 0
-15 -4 -28 18 0
-16 -3 -27 18 0
-16 -4 -27 18 0
-16 -3 -28 18 0
-16 -4 -28 17 0
-27 -15 30 0
-27 -16 30 0
-28 -15 30 0
-28 -16 29 0
-5 -17 8 0
-5 -18 8 0
-6 -17 8 0
-6 -18 7 0
-17 -5 -29 20 0
-17 -6 -29 20 0
-17 -5 -30 20 0
-17 -6 -30 20 0
-18 -5 -29 20 0
-18 -6 -29 20 0
-18 -5 -30 20 0
-18 -6 -30 19 0
-29 -17 32 0
-29 -18 32 0
-30 -17 32 0
-30 -18 31 0
-7 -19 10 0
-7 -20 10 0
-8 -19 10 0
-8 -20 9 0
-19 -7 -31 22 0
-19 -8 -31 22 0
-19 -7 -32 22 0
-19 -8 -32 22 0
-20 -7 -31 22 0
-20 -8 -31 22 0
-20 -7 -32 22 0
-20 -8 -32 21 0
-31 -19 34 0
-31 -20 34 0
-32 -19 34 0
-32 -20 33 0
-9 -21 12 0
-9 -22 12 0
-10 -21 12 0
-10 -22 11 0
-21 -9 -33 24 0
-21 -10 -33 24 0
-21 -9 -34 24 0
-21 -10 -34 24 0
-22 -9 -33 24 0
-22 -10 -33 24 0
-22 -9 -34 24 0
-22 -10 -34 23 0
-33 -21 36 0
-33 -22 36 0
-34 -21 36 0
-34 -22 35 0
-11 -23 -35 0
-12 -24 -36 0
-1 -13 -25 0
-2 -14 -26 0
-3 -15 -27 0
-4 -16 -28 0
-7 -19 -31 0
-8 -20 -32 0
